c description: Tseitin formula on , with odd charge
c generator: CNFgen (0.9.0)
c copyright: (C) 2012-2020 Massimo Lauria <massimo.lauria@uniroma1.it>
c url: https://massimolauria.net/cnfgen
c
p cnf 20 112
1 2 3 0
1 -2 -3 0
-1 2 -3 0
-1 -2 3 0
4 5 6 7 -8 0
4 5 6 -7 8 0
4 5 -6 7 8 0
4 5 -6 -7 -8 0
4 -5 6 7 8 0
4 -5 6 -7 -8 0
4 -5 -6 7 -8 0
4 -5 -6 -7 8 0
-4 5 6 7 8 0
-4 5 6 -7 -8 0
-4 5 -6 7 -8 0
-4 5 -6 -7 8 0
-4 -5 6 7 -8 0
-4 -5 6 -7 8 0
-4 -5 -6 7 8 0
-4 -5 -6 -7 -8 0
1 4 9 -10 0
1 4 -9 10 0
1 -4 9 10 0
1 -4 -9 -10 0
-1 4 9 10 0
-1 4 -9 -10 0
-1 -4 9 -10 0
-1 -4 -9 10 0
11 -12 0
-11 12 0
5 9 13 14 15 -16 0
5 9 13 14 -15 16 0
5 9 13 -14 15 16 0
5 9 13 -14 -15 -16 0
5 9 -13 14 15 16 0
5 9 -13 14 -15 -16 0
5 9 -13 -14 15 -16 0
5 9 -13 -14 -15 16 0
5 -9 13 14 15 16 0
5 -9 13 14 -15 -16 0
5 -9 13 -14 15 -16 0
5 -9 13 -14 -15 16 0
5 -9 -13 14 15 -16 0
5 -9 -13 14 -15 16 0
5 -9 -13 -14 15 16 0
5 -9 -13 -14 -15 -16 0
-5 9 13 14 15 16 0
-5 9 13 14 -15 -16 0
-5 9 13 -14 15 -16 0
-5 9 13 -14 -15 16 0
-5 9 -13 14 15 -16 0
-5 9 -13 14 -15 16 0
-5 9 -13 -14 15 16 0
-5 9 -13 -14 -15 -16 0
-5 -9 13 14 15 -16 0
-5 -9 13 14 -15 16 0
-5 -9 13 -14 15 16 0
-5 -9 13 -14 -15 -16 0
-5 -9 -13 14 15 16 0
-5 -9 -13 14 -15 -16 0
-5 -9 -13 -14 15 -16 0
-5 -9 -13 -14 -15 16 0
6 10 11 13 -17 0
6 10 11 -13 17 0
6 10 -11 13 17 0
6 10 -11 -13 -17 0
6 -10 11 13 17 0
6 -10 11 -13 -17 0
6 -10 -11 13 -17 0
6 -10 -11 -13 17 0
-6 10 11 13 17 0
-6 10 11 -13 -17 0
-6 10 -11 13 -17 0
-6 10 -11 -13 17 0
-6 -10 11 13 -17 0
-6 -10 11 -13 17 0
-6 -10 -11 13 17 0
-6 -10 -11 -13 -17 0
14 -18 0
-14 18 0
2 12 15 -19 0
2 12 -15 19 0
2 -12 15 19 0
2 -12 -15 -19 0
-2 12 15 19 0
-2 12 -15 -19 0
-2 -12 15 -19 0
-2 -12 -15 19 0
7 16 17 19 -20 0
7 16 17 -19 20 0
7 16 -17 19 20 0
7 16 -17 -19 -20 0
7 -16 17 19 20 0
7 -16 17 -19 -20 0
7 -16 -17 19 -20 0
7 -16 -17 -19 20 0
-7 16 17 19 20 0
-7 16 17 -19 -20 0
-7 16 -17 19 -20 0
-7 16 -17 -19 20 0
-7 -16 17 19 -20 0
-7 -16 17 -19 20 0
-7 -16 -17 19 20 0
-7 -16 -17 -19 -20 0
3 8 18 -20 0
3 8 -18 20 0
3 -8 18 20 0
3 -8 -18 -20 0
-3 8 18 20 0
-3 8 -18 -20 0
-3 -8 18 -20 0
-3 -8 -18 20 0